NAME: tsp20-31
TYPE: TSP
DIMENSION: 20
EDGE_WEIGHT_TYPE: EUC_2D
NODE_COORD_SECTION
0 98 0
1 28 57
2 5 58
3 41 34
4 18 96
5 80 30
6 76 90
7 51 10
8 65 32
9 82 30
10 35 90
11 50 61
12 45 33
13 88 17
14 25 60
15 12 33
16 27 43
17 78 96
18 82 31
19 73 98
EOF